c "270936.clq"
p edge 120 464
e 1 5
e 1 6
e 1 7
e 1 8
e 1 9
e 1 13
e 1 15
e 1 20
e 1 30
e 1 33
e 1 40
e 1 48
e 1 74
e 1 78
e 1 82
e 1 90
e 1 94
e 1 102
e 1 105
e 1 112
e 2 5
e 2 6
e 2 7
e 2 8
e 2 9
e 2 10
e 2 11
e 2 13
e 2 14
e 2 19
e 2 24
e 2 31
e 2 34
e 2 35
e 2 41
e 2 47
e 2 64
e 2 65
e 2 70
e 2 87
e 2 94
e 2 105
e 2 107
e 2 114
e 2 118
e 3 5
e 4 5
e 4 6
e 4 14
e 4 18
e 4 19
e 4 21
e 4 24
e 5 6
e 5 7
e 5 8
e 5 9
e 5 10
e 5 11
e 5 12
e 5 13
e 5 18
e 5 23
e 5 47
e 5 55
e 5 73
e 5 76
e 5 107
e 5 108
e 5 111
e 6 7
e 6 9
e 6 16
e 6 17
e 6 21
e 6 39
e 6 40
e 6 41
e 6 44
e 6 56
e 6 58
e 6 62
e 6 63
e 6 74
e 6 95
e 6 98
e 6 120
e 7 8
e 7 10
e 7 12
e 7 13
e 7 15
e 7 17
e 7 20
e 7 22
e 7 25
e 7 26
e 7 27
e 7 29
e 7 40
e 7 41
e 7 42
e 7 46
e 7 54
e 7 58
e 7 61
e 7 63
e 7 65
e 7 67
e 7 71
e 7 72
e 7 77
e 7 80
e 7 83
e 7 87
e 7 88
e 7 91
e 7 99
e 7 111
e 8 14
e 8 16
e 8 21
e 8 29
e 8 34
e 8 39
e 8 44
e 8 48
e 8 53
e 8 56
e 8 57
e 8 59
e 8 60
e 8 81
e 8 82
e 8 95
e 8 103
e 8 107
e 8 113
e 9 10
e 9 11
e 9 12
e 9 16
e 9 19
e 9 20
e 9 32
e 9 38
e 9 46
e 9 49
e 9 52
e 9 61
e 9 83
e 10 11
e 10 12
e 10 17
e 10 19
e 10 21
e 10 25
e 10 28
e 10 30
e 10 54
e 10 84
e 10 89
e 10 94
e 10 99
e 10 102
e 10 106
e 10 109
e 11 15
e 11 27
e 11 30
e 11 36
e 11 39
e 11 44
e 11 73
e 11 77
e 11 80
e 11 86
e 11 96
e 12 14
e 12 34
e 12 43
e 12 66
e 12 71
e 12 88
e 12 104
e 12 112
e 13 47
e 13 48
e 13 49
e 13 51
e 13 69
e 14 15
e 14 17
e 14 28
e 14 32
e 14 36
e 14 39
e 14 42
e 14 53
e 14 69
e 14 70
e 14 74
e 14 76
e 15 16
e 15 18
e 15 22
e 15 23
e 15 28
e 15 35
e 15 37
e 15 38
e 15 41
e 15 42
e 15 45
e 15 47
e 15 53
e 15 54
e 15 56
e 15 61
e 15 62
e 15 66
e 15 70
e 15 79
e 15 96
e 15 109
e 16 22
e 16 24
e 16 25
e 16 26
e 16 29
e 16 79
e 16 81
e 16 95
e 16 96
e 16 118
e 17 18
e 17 20
e 17 31
e 17 33
e 17 43
e 17 46
e 17 59
e 17 68
e 17 89
e 17 116
e 17 118
e 18 23
e 18 24
e 18 28
e 18 29
e 18 33
e 18 45
e 18 59
e 18 73
e 18 86
e 18 89
e 18 108
e 18 109
e 18 110
e 19 22
e 19 25
e 19 26
e 19 27
e 19 32
e 19 36
e 19 37
e 19 38
e 19 42
e 19 44
e 19 45
e 19 50
e 19 66
e 19 72
e 19 73
e 19 75
e 19 84
e 19 87
e 19 92
e 19 93
e 20 23
e 20 26
e 20 30
e 20 33
e 20 37
e 20 38
e 20 46
e 20 66
e 20 99
e 20 101
e 20 108
e 20 110
e 21 45
e 21 50
e 21 55
e 21 93
e 21 100
e 21 115
e 22 27
e 22 37
e 22 62
e 22 85
e 22 98
e 23 31
e 23 35
e 23 57
e 23 100
e 23 119
e 24 31
e 25 58
e 25 64
e 25 103
e 27 43
e 27 65
e 27 76
e 27 102
e 27 106
e 28 36
e 28 52
e 28 57
e 28 59
e 29 101
e 29 111
e 30 32
e 30 50
e 30 57
e 30 74
e 30 101
e 30 104
e 30 106
e 30 109
e 31 43
e 31 49
e 31 69
e 32 34
e 32 35
e 32 51
e 32 67
e 32 68
e 32 90
e 32 100
e 33 70
e 34 40
e 34 52
e 34 85
e 35 48
e 35 61
e 35 65
e 35 78
e 35 90
e 35 117
e 36 71
e 36 72
e 36 97
e 36 104
e 38 71
e 38 88
e 39 55
e 39 84
e 39 85
e 39 97
e 39 111
e 39 114
e 40 60
e 40 64
e 40 92
e 41 50
e 41 78
e 41 118
e 42 68
e 42 86
e 42 117
e 43 62
e 43 80
e 43 87
e 43 99
e 43 107
e 43 113
e 43 116
e 43 117
e 44 69
e 44 75
e 44 110
e 45 51
e 45 82
e 47 49
e 47 67
e 47 76
e 47 92
e 47 96
e 47 100
e 48 51
e 49 52
e 49 58
e 50 53
e 50 55
e 50 60
e 50 63
e 50 91
e 50 93
e 50 113
e 51 67
e 51 98
e 51 113
e 51 116
e 52 75
e 52 102
e 53 54
e 53 56
e 53 97
e 53 108
e 55 81
e 55 83
e 55 112
e 57 63
e 57 114
e 58 60
e 59 105
e 60 64
e 61 72
e 61 85
e 61 92
e 63 68
e 63 117
e 64 75
e 65 79
e 65 91
e 65 115
e 65 116
e 66 84
e 67 79
e 67 86
e 67 88
e 67 98
e 69 78
e 69 89
e 70 80
e 70 115
e 71 77
e 72 77
e 72 90
e 72 114
e 74 81
e 74 94
e 74 105
e 75 101
e 76 82
e 76 115
e 78 83
e 78 104
e 78 112
e 78 119
e 78 120
e 79 103
e 79 106
e 81 97
e 82 93
e 84 103
e 88 91
e 93 95
e 98 120
e 105 110
e 106 119
e 110 120
e 116 119
